p cnf 7230 17
-395 -2175 0
395 1852 2173 0
-1852 -2173 0
397 1854 -2178 0
-397 -2179 0
-395 -2177 0
395 1850 2174 0
395 1848 -2176 0
2178 2179 0
-2174 2175 0
-1854 -2179 0
2176 2177 0
-1848 -2177 0
-1850 -2175 0
1626 -2181 0
2172 2173 0
-2172 -2173 0
